
%FILE DATA:	Soccer Computational Problem for MiniZinc Models	%
%AUTHOR:	Jack Wall	%
%CONTACT:  	116397063@umail.ucc.ie			%
%LAST UPDATE:	03/19/2020, 16:23:29						%
%DESCRIPTION: 	261 games played with 45 games left				%


n=18; %number of teams

%Games to play
games=[|1,9|12,11|6,10|15,18|4,3|9,3|7,8|7,16|16,10|4,9|1,13|16,17|7,15|4,7|3,12|15,9|6,11|10,16|5,2|10,11|6,16|9,8|13,3|7,11|3,1|11,15|4,18|8,14|12,9|10,12|8,16|12,17|1,11|18,3|16,12|5,13|2,12|14,13|5,6|15,16|7,9|8,3|4,16|16,2|11,5|];

%Initial points
iPoints=[28,37,27,44,41,34,27,44,45,47,37,51,41,54,35,29,41,46];

%POSITION CONSTRAINTS
% [|teamID, operator, position|...]
% operators index:
%  1 for =  operator
%  2 for >  operator
%  3 for >= operator
%  4 for <  operator
%  5 for <= operator
positionConstraints=[|12,5,1|14,5,2|];